25 100
  0     35.0     35.0       0.0      230.0      0.0       0.0       0.0  
  1     41.0     49.0      73.0      204.0     10.0       4.0      10.0  
  2     35.0     17.0      18.0      147.0     10.0      11.0       7.0  
  3     55.0     45.0      76.0      165.0     10.0      16.0      13.0  
  4     55.0     20.0      73.0      195.0     10.0      30.0      19.0  
  5     15.0     30.0      20.0      167.0     10.0      24.0      26.0  
  6     25.0     30.0      49.0      158.0     10.0       4.0       3.0  
  7     20.0     50.0      36.0      135.0     10.0       6.0       5.0  
  8     10.0     43.0      50.0      149.0     10.0      10.0       9.0  
  9     55.0     60.0      47.0      156.0     10.0       4.0      16.0  
 10     30.0     60.0      85.0      172.0     10.0       3.0      16.0  
 11     20.0     65.0      33.0      152.0     10.0       3.0      12.0  
 12     50.0     35.0      15.0      133.0     10.0      31.0      19.0  
 13     30.0     25.0      79.0      208.0     10.0      41.0      23.0  
 14     15.0     10.0      32.0      187.0     10.0       3.0      20.0  
 15     30.0      5.0      30.0      152.0     10.0       6.0       8.0  
 16     10.0     20.0      29.0      139.0     10.0      29.0      19.0  
 17      5.0     30.0      60.0      189.0     10.0       1.0       2.0  
 18     20.0     40.0      47.0      136.0     10.0       8.0      12.0  
 19     15.0     60.0      32.0      146.0     10.0      18.0      17.0  
 20     45.0     65.0      79.0      182.0     10.0      11.0       9.0  
 21     45.0     20.0      18.0      136.0     10.0      15.0      11.0  
 22     45.0     10.0      50.0      153.0     10.0      11.0      18.0  
 23     55.0      5.0      36.0      155.0     10.0      53.0      29.0  
 24     65.0     35.0      58.0      190.0     10.0       6.0       3.0  
 25     65.0     20.0      56.0      186.0     10.0       3.0       6.0  
 26     45.0     30.0      87.0      186.0     10.0      27.0      17.0  
 27     35.0     40.0       5.0      140.0     10.0      13.0      16.0  
 28     41.0     37.0       6.0      136.0     10.0      16.0      16.0  
 29     64.0     42.0      29.0      150.0     10.0      11.0       9.0  
 30     40.0     60.0      25.0      132.0     10.0      36.0      21.0  
 31     31.0     52.0      17.0      138.0     10.0      34.0      27.0  
 32     35.0     69.0      67.0      186.0     10.0      23.0      23.0  
 33     53.0     52.0      24.0      161.0     10.0      19.0      11.0  
 34     65.0     55.0      70.0      173.0     10.0      10.0      14.0  
 35     63.0     65.0      54.0      178.0     10.0       5.0       8.0  
 36      2.0     60.0      41.0      178.0     10.0       9.0       5.0  
 37     20.0     20.0      87.0      190.0     10.0       2.0       8.0  
 38      5.0      5.0      42.0      153.0     10.0       3.0      16.0  
 39     60.0     12.0      33.0      186.0     10.0      57.0      31.0  
 40     40.0     25.0      40.0      139.0     10.0      15.0       9.0  
 41     42.0      7.0      43.0      160.0     10.0       8.0       5.0  
 42     24.0     12.0      25.0      158.0     10.0       7.0       5.0  
 43     23.0      3.0      82.0      185.0     10.0      14.0       7.0  
 44     11.0     14.0      31.0      144.0     10.0      17.0      18.0  
 45      6.0     38.0      29.0      169.0     10.0       8.0      16.0  
 46      2.0     48.0      63.0      180.0     10.0       2.0       1.0  
 47      8.0     56.0      34.0      176.0     10.0      52.0      27.0  
 48     13.0     52.0      65.0      192.0     10.0       4.0      36.0  
 49      6.0     68.0      73.0      152.0     10.0      21.0      30.0  
 50     47.0     47.0      75.0      182.0     10.0      25.0      13.0  
